c A SAT instance generated from a 3-CNF formula that had 40 clauses and 20 variables
p cnf 20 40
-18 -5 -14 0
-8 -13 7 0
5 -14 -19 0
-16 17 1 0
-10 4 -14 0
5 9 -18 0
4 -14 -3 0
8 3 -18 0
-7 -16 15 0
-19 8 -12 0
17 6 -12 0
-17 8 7 0
5 -14 9 0
-5 3 12 0
-5 11 -2 0
-18 -12 -1 0
-20 -17 19 0
-13 -14 -17 0
-14 6 -3 0
2 4 -18 0
-15 18 -16 0
1 7 3 0
-9 -8 -20 0
7 -9 -6 0
-17 7 18 0
4 7 -10 0
-19 16 -3 0
3 11 -13 0
-1 -18 -4 0
-13 -20 -4 0
19 -10 -2 0
8 -15 -18 0
-3 2 -11 0
8 -15 16 0
-8 17 -19 0
4 -10 9 0
19 -5 3 0
-18 -8 -17 0
14 5 -18 0
2 5 12 0
%
0

4 31 68 17 55 97 3 22 33 67 89 59 35 86 49 39 59 42 47 83
